Route #1: 26 2 4 5 16 28 10 25 30 14 22 35 21 27 46 41 37 8 38
Route #2: 17 48 34 47 43 31 29 9 40 12
Route #3: 39 20 33 23 7
Route #4: 1 45 44 13 24 6 32
Route #5: 18 15 3 42 11
Route #6: 19 36
Route #7: 
cost 1873.6584043698554
